letting n =  10
letting blocks =  [[1, 5], [1, 7], [1, 8], [1, 9], [1, 10], [2, 5], [2, 6], [2, 10], [3, 2], [3, 4], [3, 8], [4, 1], [4, 4], [4, 7], [4, 8], [4, 9], [4, 10], [5, 7], [6, 3], [6, 4], [6, 5], [7, 2], [7, 4], [7, 5], [7, 9], [8, 2], [8, 5], [8, 7], [9, 6], [10, 3], [10, 4], [10, 5], [10, 8], [10, 9]]
